(declare-fun var0 () String)
(assert (str.in.re var0 (re.++ (re.union (re.union (str.to.re ")))") (str.to.re "*")) (re.union (str.to.re "++") (str.to.re ","))) (re.++ (re.* (re.* (str.to.re "("))) (re.++ (re.+ (re.+ (str.to.re "''"))) (re.++ (re.* (re.+ (str.to.re "&"))) (re.++ (re.* (re.union (str.to.re "$$$") (str.to.re "%%%"))) (re.++ (re.+ (re.* (str.to.re "#"))) (re.++ (re.* (re.+ (str.to.re """"""))) (re.++ (re.+ (re.* (str.to.re "!!!"))) (re.++ (re.union (re.union (str.to.re "XX") (str.to.re "Y")) (re.+ (str.to.re "ZZ"))) (re.++ (re.union (re.* (str.to.re "V")) (re.+ (str.to.re "WWW"))) (re.++ (re.* (re.+ (str.to.re "UU"))) (re.++ (re.* (re.union (str.to.re "S") (str.to.re "T"))) (re.++ (re.+ (re.* (str.to.re "RR"))) (re.++ (re.+ (re.+ (str.to.re "QQ"))) (re.++ (re.+ (re.* (str.to.re "PPP"))) (re.++ (re.+ (re.union (str.to.re "NNN") (str.to.re "OOO"))) (re.++ (re.union (re.* (str.to.re "L")) (re.* (str.to.re "MM"))) (re.++ (re.* (re.union (str.to.re "JJJ") (str.to.re "K"))) (re.++ (re.+ (re.+ (str.to.re "II"))) (re.++ (re.* (re.+ (str.to.re "HH"))) (re.++ (re.+ (re.union (str.to.re "F") (str.to.re "GG"))) (re.++ (re.* (re.* (str.to.re "EEE"))) (re.++ (re.* (re.* (str.to.re "DD"))) (re.++ (re.union (re.union (str.to.re "zz") (str.to.re "AAA")) (re.union (str.to.re "B") (str.to.re "C"))) (re.++ (re.union (re.+ (str.to.re "ww")) (re.union (str.to.re "xxx") (str.to.re "y"))) (re.++ (re.+ (re.+ (str.to.re "v"))) (re.++ (re.+ (re.+ (str.to.re "u"))) (re.++ (re.* (re.* (str.to.re "ttt"))) (re.++ (re.* (re.* (str.to.re "ss"))) (re.++ (re.* (re.* (str.to.re "rrr"))) (re.++ (re.+ (re.+ (str.to.re "qqq"))) (re.++ (re.union (re.union (str.to.re "n") (str.to.re "o")) (re.+ (str.to.re "p"))) (re.++ (re.union (re.+ (str.to.re "ll")) (re.+ (str.to.re "m"))) (re.++ (re.* (re.+ (str.to.re "kk"))) (re.++ (re.+ (re.union (str.to.re "iii") (str.to.re "jj"))) (re.++ (re.union (re.* (str.to.re "ff")) (re.union (str.to.re "gg") (str.to.re "h"))) (re.++ (re.* (re.+ (str.to.re "ee"))) (re.++ (re.union (re.* (str.to.re "cc")) (re.+ (str.to.re "ddd"))) (re.++ (re.union (re.* (str.to.re "a")) (re.+ (str.to.re "bb"))) (re.++ (re.* (re.union (str.to.re "888") (str.to.re "99"))) (re.++ (re.union (re.* (str.to.re "5")) (re.union (str.to.re "666") (str.to.re "77"))) (re.++ (re.* (re.+ (str.to.re "444"))) (re.++ (re.union (re.* (str.to.re "222")) (re.+ (str.to.re "33"))) (re.++ (re.+ (re.+ (str.to.re "1"))) (re.* (re.+ (str.to.re "000")))))))))))))))))))))))))))))))))))))))))))))))))
(check-sat)